-299.0 9.0 9.0 1.0 9.0 5.0 10.0 6.0 4.0 3.0 4.0 1.0 7.0 3.0 2.0 0.0 3.0 7.0 7.0 5.0 5.0 0.0 9.0 2.0 6.0 1.0 0.0 8.0 0.0 8.0 7.0 9.0 6.0 4.0 2.0 7.0 7.0 6.0 3.0 4.0 2.0 8.0 8.0 1.0 6.0 9.0 5.0 1.0 7.0 9.0 0.0 2.0 4.0 8.0 4.0 3.0 3.0 2.0 3.0 4.0 8.0 3.0 2.0 8.0 
9.0 -315.0 10.0 2.0 2.0 6.0 4.0 5.0 4.0 6.0 6.0 4.0 3.0 4.0 6.0 9.0 6.0 2.0 7.0 2.0 6.0 6.0 7.0 5.0 1.0 4.0 10.0 7.0 1.0 3.0 2.0 8.0 7.0 5.0 8.0 10.0 6.0 10.0 9.0 2.0 9.0 1.0 9.0 8.0 3.0 6.0 7.0 8.0 1.0 6.0 8.0 8.0 2.0 6.0 5.0 3.0 1.0 10.0 0.0 0.0 0.0 0.0 0.0 0.0 
9.0 10.0 -327.0 5.0 3.0 3.0 2.0 10.0 2.0 9.0 3.0 10.0 10.0 8.0 10.0 8.0 1.0 10.0 9.0 9.0 5.0 8.0 4.0 0.0 2.0 9.0 9.0 10.0 1.0 4.0 9.0 6.0 3.0 10.0 3.0 4.0 7.0 4.0 1.0 10.0 0.0 2.0 10.0 3.0 3.0 6.0 2.0 10.0 5.0 0.0 10.0 3.0 0.0 4.0 2.0 3.0 1.0 3.0 2.0 3.0 0.0 1.0 6.0 8.0 
1.0 2.0 5.0 -295.0 9.0 0.0 1.0 3.0 9.0 3.0 8.0 10.0 3.0 10.0 6.0 6.0 6.0 2.0 3.0 4.0 3.0 1.0 4.0 1.0 6.0 3.0 3.0 6.0 4.0 9.0 7.0 5.0 2.0 2.0 8.0 6.0 9.0 10.0 7.0 2.0 6.0 0.0 5.0 7.0 9.0 6.0 1.0 10.0 0.0 2.0 4.0 3.0 2.0 5.0 4.0 5.0 3.0 3.0 1.0 10.0 7.0 3.0 0.0 10.0 
9.0 2.0 3.0 9.0 -331.0 1.0 7.0 4.0 4.0 5.0 6.0 6.0 9.0 5.0 5.0 9.0 8.0 5.0 5.0 10.0 3.0 1.0 7.0 10.0 0.0 5.0 8.0 0.0 0.0 10.0 6.0 3.0 8.0 6.0 0.0 0.0 2.0 4.0 3.0 9.0 5.0 4.0 0.0 4.0 7.0 7.0 10.0 10.0 5.0 10.0 5.0 5.0 6.0 6.0 3.0 8.0 8.0 3.0 4.0 9.0 9.0 3.0 2.0 1.0 
5.0 6.0 3.0 0.0 1.0 -322.0 9.0 5.0 8.0 5.0 5.0 5.0 1.0 7.0 0.0 0.0 10.0 8.0 2.0 4.0 3.0 3.0 9.0 2.0 9.0 8.0 7.0 5.0 2.0 10.0 0.0 2.0 7.0 3.0 6.0 10.0 9.0 6.0 1.0 6.0 9.0 4.0 0.0 2.0 6.0 6.0 8.0 2.0 7.0 2.0 9.0 1.0 10.0 7.0 10.0 2.0 9.0 5.0 8.0 0.0 6.0 7.0 4.0 6.0 
10.0 4.0 2.0 1.0 7.0 9.0 -326.0 10.0 3.0 7.0 10.0 0.0 5.0 3.0 9.0 0.0 8.0 8.0 8.0 3.0 1.0 9.0 3.0 6.0 5.0 9.0 1.0 4.0 9.0 3.0 1.0 6.0 8.0 1.0 6.0 4.0 2.0 5.0 5.0 4.0 8.0 7.0 6.0 1.0 8.0 2.0 0.0 1.0 7.0 8.0 4.0 2.0 8.0 10.0 5.0 8.0 5.0 4.0 8.0 1.0 7.0 8.0 0.0 9.0 
6.0 5.0 10.0 3.0 4.0 5.0 10.0 -324.0 6.0 8.0 10.0 7.0 1.0 1.0 6.0 1.0 10.0 5.0 3.0 3.0 6.0 2.0 9.0 9.0 4.0 0.0 0.0 5.0 5.0 6.0 1.0 9.0 6.0 2.0 9.0 5.0 1.0 5.0 10.0 5.0 3.0 9.0 0.0 9.0 2.0 7.0 3.0 10.0 10.0 4.0 4.0 10.0 7.0 1.0 3.0 1.0 2.0 7.0 0.0 2.0 5.0 10.0 4.0 8.0 
4.0 4.0 2.0 9.0 4.0 8.0 3.0 6.0 -336.0 2.0 4.0 0.0 8.0 4.0 7.0 3.0 0.0 5.0 7.0 6.0 4.0 4.0 4.0 1.0 8.0 6.0 7.0 2.0 3.0 7.0 5.0 9.0 7.0 7.0 4.0 6.0 6.0 6.0 1.0 3.0 7.0 4.0 3.0 7.0 8.0 7.0 5.0 3.0 8.0 5.0 3.0 2.0 8.0 10.0 8.0 9.0 10.0 10.0 10.0 0.0 8.0 4.0 7.0 4.0 
3.0 6.0 9.0 3.0 5.0 5.0 7.0 8.0 2.0 -279.0 1.0 5.0 0.0 3.0 4.0 5.0 3.0 5.0 2.0 8.0 6.0 10.0 1.0 3.0 8.0 7.0 9.0 4.0 2.0 1.0 0.0 3.0 5.0 6.0 3.0 1.0 2.0 2.0 7.0 7.0 9.0 4.0 0.0 7.0 8.0 3.0 7.0 1.0 4.0 3.0 6.0 8.0 4.0 9.0 1.0 9.0 5.0 0.0 1.0 9.0 0.0 1.0 9.0 0.0 
4.0 6.0 3.0 8.0 6.0 5.0 10.0 10.0 4.0 1.0 -306.0 0.0 1.0 0.0 8.0 5.0 5.0 7.0 4.0 2.0 3.0 3.0 6.0 3.0 6.0 7.0 4.0 2.0 4.0 1.0 5.0 3.0 8.0 2.0 3.0 9.0 9.0 6.0 9.0 5.0 1.0 3.0 0.0 7.0 4.0 7.0 5.0 1.0 7.0 10.0 8.0 5.0 10.0 1.0 10.0 0.0 7.0 10.0 2.0 7.0 8.0 0.0 0.0 6.0 
1.0 4.0 10.0 10.0 6.0 5.0 0.0 7.0 0.0 5.0 0.0 -339.0 4.0 6.0 2.0 4.0 2.0 8.0 5.0 10.0 6.0 7.0 2.0 3.0 9.0 10.0 7.0 10.0 9.0 3.0 5.0 10.0 1.0 1.0 9.0 3.0 7.0 4.0 0.0 8.0 3.0 8.0 10.0 0.0 0.0 9.0 7.0 10.0 8.0 10.0 2.0 10.0 10.0 3.0 7.0 0.0 3.0 4.0 7.0 5.0 1.0 3.0 10.0 6.0 
7.0 3.0 10.0 3.0 9.0 1.0 5.0 1.0 8.0 0.0 1.0 4.0 -310.0 1.0 2.0 9.0 1.0 3.0 9.0 7.0 1.0 5.0 6.0 8.0 4.0 9.0 3.0 10.0 10.0 2.0 5.0 2.0 2.0 6.0 0.0 2.0 10.0 0.0 4.0 2.0 4.0 8.0 5.0 2.0 5.0 6.0 0.0 8.0 4.0 7.0 10.0 5.0 10.0 0.0 2.0 0.0 5.0 10.0 7.0 8.0 10.0 4.0 8.0 7.0 
3.0 4.0 8.0 10.0 5.0 7.0 3.0 1.0 4.0 3.0 0.0 6.0 1.0 -243.0 4.0 7.0 7.0 2.0 2.0 1.0 4.0 0.0 1.0 6.0 0.0 2.0 0.0 1.0 0.0 8.0 6.0 6.0 2.0 3.0 7.0 0.0 0.0 5.0 7.0 1.0 10.0 1.0 1.0 8.0 2.0 3.0 4.0 4.0 0.0 10.0 8.0 2.0 2.0 10.0 1.0 1.0 8.0 7.0 5.0 2.0 1.0 9.0 7.0 0.0 
2.0 6.0 10.0 6.0 5.0 0.0 9.0 6.0 7.0 4.0 8.0 2.0 2.0 4.0 -341.0 6.0 1.0 3.0 10.0 10.0 3.0 10.0 7.0 8.0 6.0 7.0 5.0 7.0 1.0 6.0 8.0 1.0 6.0 8.0 5.0 9.0 4.0 9.0 4.0 2.0 5.0 6.0 1.0 9.0 0.0 10.0 7.0 7.0 5.0 0.0 2.0 8.0 3.0 8.0 10.0 4.0 1.0 8.0 10.0 4.0 7.0 8.0 0.0 1.0 
0.0 9.0 8.0 6.0 9.0 0.0 0.0 1.0 3.0 5.0 5.0 4.0 9.0 7.0 6.0 -310.0 10.0 9.0 6.0 2.0 2.0 10.0 10.0 8.0 6.0 5.0 5.0 2.0 0.0 5.0 8.0 10.0 0.0 8.0 2.0 10.0 1.0 10.0 7.0 2.0 8.0 2.0 4.0 1.0 0.0 0.0 4.0 3.0 7.0 2.0 5.0 0.0 6.0 10.0 6.0 1.0 7.0 6.0 1.0 7.0 8.0 4.0 7.0 1.0 
3.0 6.0 1.0 6.0 8.0 10.0 8.0 10.0 0.0 3.0 5.0 2.0 1.0 7.0 1.0 10.0 -287.0 5.0 3.0 9.0 2.0 0.0 2.0 7.0 2.0 8.0 8.0 7.0 8.0 3.0 6.0 0.0 6.0 10.0 1.0 6.0 2.0 4.0 4.0 7.0 10.0 4.0 1.0 1.0 5.0 9.0 0.0 3.0 1.0 2.0 0.0 9.0 0.0 1.0 9.0 6.0 3.0 1.0 7.0 8.0 6.0 5.0 1.0 4.0 
7.0 2.0 10.0 2.0 5.0 8.0 8.0 5.0 5.0 5.0 7.0 8.0 3.0 2.0 3.0 9.0 5.0 -300.0 7.0 0.0 0.0 3.0 1.0 2.0 0.0 9.0 3.0 5.0 1.0 6.0 0.0 5.0 1.0 4.0 7.0 0.0 6.0 7.0 4.0 6.0 1.0 4.0 10.0 2.0 4.0 3.0 4.0 0.0 8.0 8.0 9.0 6.0 5.0 1.0 6.0 4.0 8.0 9.0 1.0 10.0 9.0 5.0 7.0 5.0 
7.0 7.0 9.0 3.0 5.0 2.0 8.0 3.0 7.0 2.0 4.0 5.0 9.0 2.0 10.0 6.0 3.0 7.0 -334.0 2.0 8.0 1.0 9.0 10.0 10.0 8.0 3.0 5.0 9.0 7.0 4.0 10.0 9.0 1.0 0.0 3.0 1.0 10.0 8.0 5.0 8.0 8.0 4.0 2.0 10.0 2.0 9.0 2.0 3.0 8.0 0.0 4.0 8.0 8.0 0.0 5.0 4.0 2.0 5.0 0.0 4.0 3.0 4.0 9.0 
5.0 2.0 9.0 4.0 10.0 4.0 3.0 3.0 6.0 8.0 2.0 10.0 7.0 1.0 10.0 2.0 9.0 0.0 2.0 -291.0 8.0 5.0 2.0 8.0 0.0 0.0 0.0 10.0 7.0 2.0 6.0 10.0 0.0 2.0 10.0 9.0 0.0 3.0 3.0 1.0 4.0 0.0 4.0 5.0 1.0 5.0 9.0 4.0 3.0 3.0 2.0 2.0 9.0 1.0 2.0 2.0 4.0 8.0 10.0 6.0 4.0 9.0 4.0 7.0 
5.0 6.0 5.0 3.0 3.0 3.0 1.0 6.0 4.0 6.0 3.0 6.0 1.0 4.0 3.0 2.0 2.0 0.0 8.0 8.0 -299.0 0.0 8.0 10.0 3.0 6.0 5.0 10.0 4.0 0.0 9.0 1.0 5.0 2.0 7.0 1.0 10.0 9.0 3.0 8.0 9.0 3.0 1.0 9.0 2.0 0.0 0.0 10.0 5.0 10.0 2.0 9.0 0.0 3.0 2.0 9.0 3.0 10.0 9.0 6.0 9.0 4.0 0.0 4.0 
0.0 6.0 8.0 1.0 1.0 3.0 9.0 2.0 4.0 10.0 3.0 7.0 5.0 0.0 10.0 10.0 0.0 3.0 1.0 5.0 0.0 -319.0 6.0 2.0 7.0 4.0 7.0 3.0 7.0 9.0 9.0 4.0 4.0 5.0 9.0 5.0 4.0 6.0 9.0 4.0 5.0 9.0 6.0 7.0 9.0 3.0 7.0 7.0 1.0 10.0 7.0 1.0 8.0 2.0 2.0 4.0 6.0 6.0 1.0 4.0 9.0 4.0 7.0 2.0 
9.0 7.0 4.0 4.0 7.0 9.0 3.0 9.0 4.0 1.0 6.0 2.0 6.0 1.0 7.0 10.0 2.0 1.0 9.0 2.0 8.0 6.0 -338.0 8.0 5.0 4.0 6.0 8.0 3.0 5.0 9.0 7.0 8.0 5.0 7.0 3.0 0.0 10.0 2.0 1.0 2.0 6.0 9.0 3.0 3.0 5.0 2.0 6.0 0.0 5.0 7.0 5.0 3.0 2.0 5.0 8.0 10.0 6.0 9.0 8.0 6.0 2.0 10.0 8.0 
2.0 5.0 0.0 1.0 10.0 2.0 6.0 9.0 1.0 3.0 3.0 3.0 8.0 6.0 8.0 8.0 7.0 2.0 10.0 8.0 10.0 2.0 8.0 -343.0 6.0 10.0 1.0 7.0 8.0 0.0 0.0 8.0 6.0 8.0 3.0 8.0 5.0 3.0 0.0 3.0 7.0 2.0 0.0 9.0 5.0 4.0 8.0 9.0 9.0 6.0 5.0 8.0 8.0 7.0 0.0 2.0 6.0 9.0 4.0 5.0 9.0 4.0 10.0 9.0 
6.0 1.0 2.0 6.0 0.0 9.0 5.0 4.0 8.0 8.0 6.0 9.0 4.0 0.0 6.0 6.0 2.0 0.0 10.0 0.0 3.0 7.0 5.0 6.0 -292.0 3.0 6.0 5.0 8.0 3.0 7.0 3.0 4.0 9.0 2.0 0.0 8.0 7.0 7.0 6.0 2.0 5.0 7.0 1.0 0.0 7.0 1.0 7.0 8.0 9.0 4.0 6.0 2.0 0.0 2.0 5.0 10.0 4.0 0.0 6.0 5.0 3.0 4.0 3.0 
1.0 4.0 9.0 3.0 5.0 8.0 9.0 0.0 6.0 7.0 7.0 10.0 9.0 2.0 7.0 5.0 8.0 9.0 8.0 0.0 6.0 4.0 4.0 10.0 3.0 -290.0 2.0 2.0 5.0 5.0 4.0 9.0 3.0 5.0 2.0 10.0 2.0 6.0 0.0 2.0 6.0 0.0 0.0 7.0 10.0 0.0 8.0 6.0 0.0 3.0 9.0 0.0 0.0 10.0 4.0 2.0 1.0 5.0 4.0 0.0 5.0 1.0 6.0 2.0 
0.0 10.0 9.0 3.0 8.0 7.0 1.0 0.0 7.0 9.0 4.0 7.0 3.0 0.0 5.0 5.0 8.0 3.0 3.0 0.0 5.0 7.0 6.0 1.0 6.0 2.0 -276.0 1.0 9.0 0.0 6.0 0.0 1.0 0.0 0.0 2.0 3.0 10.0 8.0 6.0 7.0 9.0 9.0 3.0 1.0 6.0 10.0 5.0 3.0 4.0 4.0 2.0 2.0 8.0 9.0 0.0 6.0 8.0 1.0 1.0 2.0 4.0 1.0 6.0 
8.0 7.0 10.0 6.0 0.0 5.0 4.0 5.0 2.0 4.0 2.0 10.0 10.0 1.0 7.0 2.0 7.0 5.0 5.0 10.0 10.0 3.0 8.0 7.0 5.0 2.0 1.0 -307.0 0.0 6.0 1.0 10.0 0.0 5.0 0.0 10.0 6.0 5.0 1.0 6.0 0.0 7.0 1.0 3.0 1.0 8.0 3.0 6.0 2.0 2.0 6.0 2.0 8.0 10.0 4.0 10.0 0.0 8.0 8.0 8.0 4.0 2.0 7.0 1.0 
0.0 1.0 1.0 4.0 0.0 2.0 9.0 5.0 3.0 2.0 4.0 9.0 10.0 0.0 1.0 0.0 8.0 1.0 9.0 7.0 4.0 7.0 3.0 8.0 8.0 5.0 9.0 0.0 -302.0 9.0 3.0 4.0 6.0 7.0 4.0 1.0 0.0 9.0 1.0 7.0 10.0 2.0 5.0 6.0 8.0 7.0 0.0 1.0 7.0 9.0 6.0 6.0 6.0 8.0 5.0 1.0 8.0 7.0 3.0 2.0 6.0 6.0 5.0 7.0 
8.0 3.0 4.0 9.0 10.0 10.0 3.0 6.0 7.0 1.0 1.0 3.0 2.0 8.0 6.0 5.0 3.0 6.0 7.0 2.0 0.0 9.0 5.0 0.0 3.0 5.0 0.0 6.0 9.0 -305.0 9.0 4.0 4.0 3.0 10.0 9.0 4.0 9.0 2.0 7.0 1.0 1.0 0.0 1.0 3.0 1.0 0.0 7.0 3.0 6.0 5.0 6.0 8.0 7.0 9.0 1.0 1.0 5.0 6.0 7.0 8.0 9.0 6.0 2.0 
7.0 2.0 9.0 7.0 6.0 0.0 1.0 1.0 5.0 0.0 5.0 5.0 5.0 6.0 8.0 8.0 6.0 0.0 4.0 6.0 9.0 9.0 9.0 0.0 7.0 4.0 6.0 1.0 3.0 9.0 -331.0 9.0 7.0 5.0 9.0 1.0 7.0 8.0 3.0 9.0 6.0 2.0 1.0 3.0 10.0 2.0 9.0 5.0 0.0 6.0 5.0 6.0 9.0 8.0 8.0 1.0 7.0 10.0 2.0 9.0 8.0 0.0 8.0 0.0 
9.0 8.0 6.0 5.0 3.0 2.0 6.0 9.0 9.0 3.0 3.0 10.0 2.0 6.0 1.0 10.0 0.0 5.0 10.0 10.0 1.0 4.0 7.0 8.0 3.0 9.0 0.0 10.0 4.0 4.0 9.0 -347.0 8.0 2.0 0.0 6.0 7.0 2.0 0.0 9.0 3.0 6.0 3.0 4.0 7.0 9.0 10.0 4.0 2.0 2.0 8.0 6.0 5.0 6.0 3.0 10.0 3.0 10.0 10.0 6.0 3.0 9.0 5.0 3.0 
6.0 7.0 3.0 2.0 8.0 7.0 8.0 6.0 7.0 5.0 8.0 1.0 2.0 2.0 6.0 0.0 6.0 1.0 9.0 0.0 5.0 4.0 8.0 6.0 4.0 3.0 1.0 0.0 6.0 4.0 7.0 8.0 -303.0 3.0 4.0 3.0 2.0 3.0 2.0 5.0 3.0 9.0 5.0 8.0 2.0 3.0 9.0 9.0 10.0 4.0 3.0 9.0 2.0 5.0 10.0 7.0 6.0 2.0 0.0 6.0 8.0 7.0 0.0 4.0 
4.0 5.0 10.0 2.0 6.0 3.0 1.0 2.0 7.0 6.0 2.0 1.0 6.0 3.0 8.0 8.0 10.0 4.0 1.0 2.0 2.0 5.0 5.0 8.0 9.0 5.0 0.0 5.0 7.0 3.0 5.0 2.0 3.0 -296.0 7.0 4.0 9.0 0.0 5.0 0.0 1.0 10.0 10.0 0.0 3.0 10.0 5.0 3.0 8.0 2.0 6.0 4.0 0.0 3.0 1.0 9.0 4.0 4.0 9.0 10.0 6.0 4.0 8.0 1.0 
2.0 8.0 3.0 8.0 0.0 6.0 6.0 9.0 4.0 3.0 3.0 9.0 0.0 7.0 5.0 2.0 1.0 7.0 0.0 10.0 7.0 9.0 7.0 3.0 2.0 2.0 0.0 0.0 4.0 10.0 9.0 0.0 4.0 7.0 -287.0 6.0 6.0 0.0 6.0 0.0 7.0 2.0 6.0 6.0 2.0 0.0 5.0 2.0 7.0 2.0 8.0 2.0 3.0 1.0 4.0 4.0 2.0 9.0 5.0 6.0 10.0 9.0 8.0 2.0 
7.0 10.0 4.0 6.0 0.0 10.0 4.0 5.0 6.0 1.0 9.0 3.0 2.0 0.0 9.0 10.0 6.0 0.0 3.0 9.0 1.0 5.0 3.0 8.0 0.0 10.0 2.0 10.0 1.0 9.0 1.0 6.0 3.0 4.0 6.0 -325.0 8.0 5.0 9.0 3.0 6.0 10.0 9.0 8.0 9.0 10.0 8.0 2.0 2.0 4.0 5.0 10.0 3.0 1.0 6.0 6.0 0.0 2.0 5.0 6.0 6.0 5.0 2.0 2.0 
7.0 6.0 7.0 9.0 2.0 9.0 2.0 1.0 6.0 2.0 9.0 7.0 10.0 0.0 4.0 1.0 2.0 6.0 1.0 0.0 10.0 4.0 0.0 5.0 8.0 2.0 3.0 6.0 0.0 4.0 7.0 7.0 2.0 9.0 6.0 8.0 -323.0 7.0 2.0 7.0 4.0 10.0 4.0 8.0 6.0 10.0 0.0 9.0 6.0 8.0 9.0 0.0 0.0 5.0 0.0 0.0 9.0 10.0 0.0 2.0 8.0 9.0 10.0 8.0 
6.0 10.0 4.0 10.0 4.0 6.0 5.0 5.0 6.0 2.0 6.0 4.0 0.0 5.0 9.0 10.0 4.0 7.0 10.0 3.0 9.0 6.0 10.0 3.0 7.0 6.0 10.0 5.0 9.0 9.0 8.0 2.0 3.0 0.0 0.0 5.0 7.0 -351.0 3.0 5.0 9.0 3.0 7.0 0.0 9.0 7.0 7.0 1.0 0.0 5.0 8.0 7.0 10.0 9.0 2.0 3.0 5.0 1.0 7.0 9.0 2.0 8.0 9.0 0.0 
3.0 9.0 1.0 7.0 3.0 1.0 5.0 10.0 1.0 7.0 9.0 0.0 4.0 7.0 4.0 7.0 4.0 4.0 8.0 3.0 3.0 9.0 2.0 0.0 7.0 0.0 8.0 1.0 1.0 2.0 3.0 0.0 2.0 5.0 6.0 9.0 2.0 3.0 -281.0 8.0 7.0 8.0 9.0 3.0 3.0 10.0 2.0 9.0 6.0 3.0 0.0 4.0 0.0 2.0 9.0 6.0 0.0 1.0 4.0 9.0 1.0 7.0 10.0 0.0 
4.0 2.0 10.0 2.0 9.0 6.0 4.0 5.0 3.0 7.0 5.0 8.0 2.0 1.0 2.0 2.0 7.0 6.0 5.0 1.0 8.0 4.0 1.0 3.0 6.0 2.0 6.0 6.0 7.0 7.0 9.0 9.0 5.0 0.0 0.0 3.0 7.0 5.0 8.0 -321.0 2.0 7.0 9.0 7.0 9.0 9.0 6.0 2.0 6.0 5.0 1.0 1.0 4.0 10.0 0.0 6.0 2.0 7.0 4.0 8.0 10.0 10.0 8.0 1.0 
2.0 9.0 0.0 6.0 5.0 9.0 8.0 3.0 7.0 9.0 1.0 3.0 4.0 10.0 5.0 8.0 10.0 1.0 8.0 4.0 9.0 5.0 2.0 7.0 2.0 6.0 7.0 0.0 10.0 1.0 6.0 3.0 3.0 1.0 7.0 6.0 4.0 9.0 7.0 2.0 -331.0 3.0 6.0 1.0 5.0 6.0 10.0 1.0 0.0 9.0 7.0 7.0 5.0 4.0 3.0 0.0 4.0 10.0 3.0 3.0 6.0 10.0 10.0 9.0 
8.0 1.0 2.0 0.0 4.0 4.0 7.0 9.0 4.0 4.0 3.0 8.0 8.0 1.0 6.0 2.0 4.0 4.0 8.0 0.0 3.0 9.0 6.0 2.0 5.0 0.0 9.0 7.0 2.0 1.0 2.0 6.0 9.0 10.0 2.0 10.0 10.0 3.0 8.0 7.0 3.0 -279.0 2.0 0.0 9.0 5.0 1.0 6.0 3.0 1.0 3.0 8.0 0.0 4.0 6.0 0.0 10.0 3.0 3.0 0.0 3.0 10.0 0.0 1.0 
8.0 9.0 10.0 5.0 0.0 0.0 6.0 0.0 3.0 0.0 0.0 10.0 5.0 1.0 1.0 4.0 1.0 10.0 4.0 4.0 1.0 6.0 9.0 0.0 7.0 0.0 9.0 1.0 5.0 0.0 1.0 3.0 5.0 10.0 6.0 9.0 4.0 7.0 9.0 9.0 6.0 2.0 -305.0 8.0 10.0 4.0 10.0 10.0 10.0 3.0 6.0 6.0 0.0 5.0 5.0 3.0 1.0 8.0 4.0 5.0 0.0 10.0 3.0 4.0 
1.0 8.0 3.0 7.0 4.0 2.0 1.0 9.0 7.0 7.0 7.0 0.0 2.0 8.0 9.0 1.0 1.0 2.0 2.0 5.0 9.0 7.0 3.0 9.0 1.0 7.0 3.0 3.0 6.0 1.0 3.0 4.0 8.0 0.0 6.0 8.0 8.0 0.0 3.0 7.0 1.0 0.0 8.0 -303.0 6.0 3.0 5.0 6.0 7.0 10.0 6.0 8.0 0.0 9.0 8.0 5.0 8.0 4.0 1.0 8.0 7.0 1.0 3.0 7.0 
6.0 3.0 3.0 9.0 7.0 6.0 8.0 2.0 8.0 8.0 4.0 0.0 5.0 2.0 0.0 0.0 5.0 4.0 10.0 1.0 2.0 9.0 3.0 5.0 0.0 10.0 1.0 1.0 8.0 3.0 10.0 7.0 2.0 3.0 2.0 9.0 6.0 9.0 3.0 9.0 5.0 9.0 10.0 6.0 -291.0 2.0 3.0 1.0 5.0 4.0 0.0 4.0 7.0 3.0 2.0 3.0 2.0 3.0 5.0 3.0 0.0 6.0 9.0 6.0 
9.0 6.0 6.0 6.0 7.0 6.0 2.0 7.0 7.0 3.0 7.0 9.0 6.0 3.0 10.0 0.0 9.0 3.0 2.0 5.0 0.0 3.0 5.0 4.0 7.0 0.0 6.0 8.0 7.0 1.0 2.0 9.0 3.0 10.0 0.0 10.0 10.0 7.0 10.0 9.0 6.0 5.0 4.0 3.0 2.0 -347.0 7.0 7.0 4.0 6.0 9.0 10.0 10.0 1.0 6.0 5.0 3.0 7.0 6.0 5.0 4.0 6.0 4.0 3.0 
5.0 7.0 2.0 1.0 10.0 8.0 0.0 3.0 5.0 7.0 5.0 7.0 0.0 4.0 7.0 4.0 0.0 4.0 9.0 9.0 0.0 7.0 2.0 8.0 1.0 8.0 10.0 3.0 0.0 0.0 9.0 10.0 9.0 5.0 5.0 8.0 0.0 7.0 2.0 6.0 10.0 1.0 10.0 5.0 3.0 7.0 -337.0 10.0 10.0 9.0 0.0 2.0 8.0 10.0 5.0 9.0 3.0 10.0 2.0 9.0 7.0 1.0 8.0 1.0 
1.0 8.0 10.0 10.0 10.0 2.0 1.0 10.0 3.0 1.0 1.0 10.0 8.0 4.0 7.0 3.0 3.0 0.0 2.0 4.0 10.0 7.0 6.0 9.0 7.0 6.0 5.0 6.0 1.0 7.0 5.0 4.0 9.0 3.0 2.0 2.0 9.0 1.0 9.0 2.0 1.0 6.0 10.0 6.0 1.0 7.0 10.0 -321.0 2.0 4.0 3.0 2.0 9.0 7.0 5.0 7.0 6.0 5.0 1.0 5.0 2.0 1.0 10.0 3.0 
7.0 1.0 5.0 0.0 5.0 7.0 7.0 10.0 8.0 4.0 7.0 8.0 4.0 0.0 5.0 7.0 1.0 8.0 3.0 3.0 5.0 1.0 0.0 9.0 8.0 0.0 3.0 2.0 7.0 3.0 0.0 2.0 10.0 8.0 7.0 2.0 6.0 0.0 6.0 6.0 0.0 3.0 10.0 7.0 5.0 4.0 10.0 2.0 -291.0 6.0 6.0 8.0 4.0 2.0 3.0 5.0 3.0 2.0 5.0 2.0 5.0 4.0 1.0 9.0 
9.0 6.0 0.0 2.0 10.0 2.0 8.0 4.0 5.0 3.0 10.0 10.0 7.0 10.0 0.0 2.0 2.0 8.0 8.0 3.0 10.0 10.0 5.0 6.0 9.0 3.0 4.0 2.0 9.0 6.0 6.0 2.0 4.0 2.0 2.0 4.0 8.0 5.0 3.0 5.0 9.0 1.0 3.0 10.0 4.0 6.0 9.0 4.0 6.0 -341.0 6.0 9.0 10.0 4.0 0.0 9.0 10.0 3.0 4.0 0.0 3.0 2.0 8.0 7.0 
0.0 8.0 10.0 4.0 5.0 9.0 4.0 4.0 3.0 6.0 8.0 2.0 10.0 8.0 2.0 5.0 0.0 9.0 0.0 2.0 2.0 7.0 7.0 5.0 4.0 9.0 4.0 6.0 6.0 5.0 5.0 8.0 3.0 6.0 8.0 5.0 9.0 8.0 0.0 1.0 7.0 3.0 6.0 6.0 0.0 9.0 0.0 3.0 6.0 6.0 -310.0 0.0 8.0 7.0 0.0 2.0 4.0 0.0 8.0 7.0 4.0 8.0 8.0 1.0 
2.0 8.0 3.0 3.0 5.0 1.0 2.0 10.0 2.0 8.0 5.0 10.0 5.0 2.0 8.0 0.0 9.0 6.0 4.0 2.0 9.0 1.0 5.0 8.0 6.0 0.0 2.0 2.0 6.0 6.0 6.0 6.0 9.0 4.0 2.0 10.0 0.0 7.0 4.0 1.0 7.0 8.0 6.0 8.0 4.0 10.0 2.0 2.0 8.0 9.0 0.0 -318.0 8.0 5.0 8.0 10.0 7.0 2.0 6.0 2.0 1.0 0.0 8.0 8.0 
4.0 2.0 0.0 2.0 6.0 10.0 8.0 7.0 8.0 4.0 10.0 10.0 10.0 2.0 3.0 6.0 0.0 5.0 8.0 9.0 0.0 8.0 3.0 8.0 2.0 0.0 2.0 8.0 6.0 8.0 9.0 5.0 2.0 0.0 3.0 3.0 0.0 10.0 0.0 4.0 5.0 0.0 0.0 0.0 7.0 10.0 8.0 9.0 4.0 10.0 8.0 8.0 -305.0 4.0 4.0 0.0 3.0 1.0 0.0 8.0 7.0 3.0 8.0 3.0 
8.0 6.0 4.0 5.0 6.0 7.0 10.0 1.0 10.0 9.0 1.0 3.0 0.0 10.0 8.0 10.0 1.0 1.0 8.0 1.0 3.0 2.0 2.0 7.0 0.0 10.0 8.0 10.0 8.0 7.0 8.0 6.0 5.0 3.0 1.0 1.0 5.0 9.0 2.0 10.0 4.0 4.0 5.0 9.0 3.0 1.0 10.0 7.0 2.0 4.0 7.0 5.0 4.0 -330.0 3.0 9.0 1.0 6.0 4.0 8.0 8.0 7.0 0.0 3.0 
4.0 5.0 2.0 4.0 3.0 10.0 5.0 3.0 8.0 1.0 10.0 7.0 2.0 1.0 10.0 6.0 9.0 6.0 0.0 2.0 2.0 2.0 5.0 0.0 2.0 4.0 9.0 4.0 5.0 9.0 8.0 3.0 10.0 1.0 4.0 6.0 0.0 2.0 9.0 0.0 3.0 6.0 5.0 8.0 2.0 6.0 5.0 5.0 3.0 0.0 0.0 8.0 4.0 3.0 -284.0 6.0 5.0 5.0 2.0 5.0 9.0 1.0 1.0 9.0 
3.0 3.0 3.0 5.0 8.0 2.0 8.0 1.0 9.0 9.0 0.0 0.0 0.0 1.0 4.0 1.0 6.0 4.0 5.0 2.0 9.0 4.0 8.0 2.0 5.0 2.0 0.0 10.0 1.0 1.0 1.0 10.0 7.0 9.0 4.0 6.0 0.0 3.0 6.0 6.0 0.0 0.0 3.0 5.0 3.0 5.0 9.0 7.0 5.0 9.0 2.0 10.0 0.0 9.0 6.0 -289.0 5.0 10.0 8.0 9.0 4.0 3.0 2.0 7.0 
3.0 1.0 1.0 3.0 8.0 9.0 5.0 2.0 10.0 5.0 7.0 3.0 5.0 8.0 1.0 7.0 3.0 8.0 4.0 4.0 3.0 6.0 10.0 6.0 10.0 1.0 6.0 0.0 8.0 1.0 7.0 3.0 6.0 4.0 2.0 0.0 9.0 5.0 0.0 2.0 4.0 10.0 1.0 8.0 2.0 3.0 3.0 6.0 3.0 10.0 4.0 7.0 3.0 1.0 5.0 5.0 -295.0 10.0 5.0 7.0 1.0 0.0 2.0 9.0 
2.0 10.0 3.0 3.0 3.0 5.0 4.0 7.0 10.0 0.0 10.0 4.0 10.0 7.0 8.0 6.0 1.0 9.0 2.0 8.0 10.0 6.0 6.0 9.0 4.0 5.0 8.0 8.0 7.0 5.0 10.0 10.0 2.0 4.0 9.0 2.0 10.0 1.0 1.0 7.0 10.0 3.0 8.0 4.0 3.0 7.0 10.0 5.0 2.0 3.0 0.0 2.0 1.0 6.0 5.0 10.0 10.0 -334.0 3.0 0.0 1.0 0.0 1.0 4.0 
3.0 0.0 2.0 1.0 4.0 8.0 8.0 0.0 10.0 1.0 2.0 7.0 7.0 5.0 10.0 1.0 7.0 1.0 5.0 10.0 9.0 1.0 9.0 4.0 0.0 4.0 1.0 8.0 3.0 6.0 2.0 10.0 0.0 9.0 5.0 5.0 0.0 7.0 4.0 4.0 3.0 3.0 4.0 1.0 5.0 6.0 2.0 1.0 5.0 4.0 8.0 6.0 0.0 4.0 2.0 8.0 5.0 3.0 -274.0 7.0 3.0 3.0 2.0 6.0 
4.0 0.0 3.0 10.0 9.0 0.0 1.0 2.0 0.0 9.0 7.0 5.0 8.0 2.0 4.0 7.0 8.0 10.0 0.0 6.0 6.0 4.0 8.0 5.0 6.0 0.0 1.0 8.0 2.0 7.0 9.0 6.0 6.0 10.0 6.0 6.0 2.0 9.0 9.0 8.0 3.0 0.0 5.0 8.0 3.0 5.0 9.0 5.0 2.0 0.0 7.0 2.0 8.0 8.0 5.0 9.0 7.0 0.0 7.0 -331.0 9.0 2.0 8.0 6.0 
8.0 0.0 0.0 7.0 9.0 6.0 7.0 5.0 8.0 0.0 8.0 1.0 10.0 1.0 7.0 8.0 6.0 9.0 4.0 4.0 9.0 9.0 6.0 9.0 5.0 5.0 2.0 4.0 6.0 8.0 8.0 3.0 8.0 6.0 10.0 6.0 8.0 2.0 1.0 10.0 6.0 3.0 0.0 7.0 0.0 4.0 7.0 2.0 5.0 3.0 4.0 1.0 7.0 8.0 9.0 4.0 1.0 1.0 3.0 9.0 -324.0 1.0 4.0 2.0 
3.0 0.0 1.0 3.0 3.0 7.0 8.0 10.0 4.0 1.0 0.0 3.0 4.0 9.0 8.0 4.0 5.0 5.0 3.0 9.0 4.0 4.0 2.0 4.0 3.0 1.0 4.0 2.0 6.0 9.0 0.0 9.0 7.0 4.0 9.0 5.0 9.0 8.0 7.0 10.0 10.0 10.0 10.0 1.0 6.0 6.0 1.0 1.0 4.0 2.0 8.0 0.0 3.0 7.0 1.0 3.0 0.0 0.0 3.0 2.0 1.0 -284.0 3.0 5.0 
2.0 0.0 6.0 0.0 2.0 4.0 0.0 4.0 7.0 9.0 0.0 10.0 8.0 7.0 0.0 7.0 1.0 7.0 4.0 4.0 0.0 7.0 10.0 10.0 4.0 6.0 1.0 7.0 5.0 6.0 8.0 5.0 0.0 8.0 8.0 2.0 10.0 9.0 10.0 8.0 10.0 0.0 3.0 3.0 9.0 4.0 8.0 10.0 1.0 8.0 8.0 8.0 8.0 0.0 1.0 2.0 2.0 1.0 2.0 8.0 4.0 3.0 -316.0 7.0 
8.0 0.0 8.0 10.0 1.0 6.0 9.0 8.0 4.0 0.0 6.0 6.0 7.0 0.0 1.0 1.0 4.0 5.0 9.0 7.0 4.0 2.0 8.0 9.0 3.0 2.0 6.0 1.0 7.0 2.0 0.0 3.0 4.0 1.0 2.0 2.0 8.0 0.0 0.0 1.0 9.0 1.0 4.0 7.0 6.0 3.0 1.0 3.0 9.0 7.0 1.0 8.0 3.0 3.0 9.0 7.0 9.0 4.0 6.0 6.0 2.0 5.0 7.0 -285.0 

